(set-info :smt-lib-version 2.6)
(set-logic QF_LIA)
(set-info :category "industrial")
(set-info :status sat)
(declare-fun x0 () Int)
(declare-fun x1 () Int)
(declare-fun x10 () Int)
(declare-fun x11 () Int)
(declare-fun x12 () Int)
(declare-fun x13 () Int)
(declare-fun x14 () Int)
(declare-fun x15 () Int)
(declare-fun x16 () Int)
(declare-fun x17 () Int)
(declare-fun x18 () Int)
(declare-fun x19 () Int)
(declare-fun x2 () Int)
(declare-fun x20 () Int)
(declare-fun x21 () Int)
(declare-fun x22 () Int)
(declare-fun x23 () Int)
(declare-fun x24 () Int)
(declare-fun x25 () Int)
(declare-fun x26 () Int)
(declare-fun x27 () Int)
(declare-fun x28 () Int)
(declare-fun x29 () Int)
(declare-fun x3 () Int)
(declare-fun x4 () Int)
(declare-fun x5 () Int)
(declare-fun x6 () Int)
(declare-fun x7 () Int)
(declare-fun x8 () Int)
(declare-fun x9 () Int)
(assert (let ((?v_9 (* 0 x1)) (?v_17 (* 2 x10)) (?v_19 (* 0 x13)) (?v_3 (* 0 x15)) (?v_20 (* 0 x19)) (?v_28 (* 1 x20)) (?v_7 (* 0 x21)) (?v_1 (* 0 x24)) (?v_16 (* 1 x7)) (?v_44 (* 0 x0)) (?v_2 (* 1 x10)) (?v_65 (* 1 x12)) (?v_8 (* 0 x28)) (?v_35 (* 0 x4)) (?v_49 (* 1 x17)) (?v_32 (* 0 x23)) (?v_14 (* 1 x25)) (?v_23 (* 0 x6)) (?v_18 (* 0 x11)) (?v_30 (* 1 x18)) (?v_22 (* 0 x25)) (?v_12 (* 0 x8)) (?v_52 (* 2 x23)) (?v_13 (* 1 x24)) (?v_15 (* 1 x3)) (?v_71 (* 1 x5)) (?v_24 (* 0 x7)) (?v_29 (* 0 x12)) (?v_69 (* 2 x13)) (?v_41 (* 0 x16)) (?v_47 (* 0 x26)) (?v_96 (* 1 x2)) (?v_57 (* 2 x22)) (?v_91 (* 1 x28)) (?v_36 (* 1 x9)) (?v_31 (* 0 x20)) (?v_43 (* 1 x29)) (?v_26 (* 0 x5)) (?v_27 (* 0 x9)) (?v_34 (* 0 x3)) (?v_93 (* 1 x14)) (?v_92 (* 1 x21)) (?v_70 (* 1 x23)) (?v_64 (* 1 x11)) (?v_45 (* 0 x14)) (?v_42 (* 0 x2)) (?v_46 (* 0 x22)) (?v_53 (* 0 x29)) (?v_61 (* 1 x6)) (?v_58 (* 1 x26)) (?v_84 (* 0 x10)) (?v_83 (* 2 x12)) (?v_48 (* 0 x18)) (?v_98 (* 2 x28)) (?v_60 (* 1 x22)) (?v_66 (* 1 x0)) (?v_59 (* 2 x19)) (?v_100 (* 2 x8)) (?v_74 (* 1 x15)) (?v_82 (* 0 x17)) (?v_85 (* 1 x8)) (?v_97 (* 2 x1)) (?v_80 (* 1 x16)) (?v_73 (* 1 x13)) (?v_79 (* 1 x1)) (?v_75 (* 0 x27)) (?v_90 (* 1 x4))) (let ((?v_76 (+ ?v_90 (+ ?v_71 ?v_36))) (?v_99 (* 1 x27)) (?v_88 (* (- 2) x25)) (?v_86 (* (- 1) x11)) (?v_5 (* (- 1) x22)) (?v_6 (* (- 1) x26)) (?v_0 (* (- 1) x14)) (?v_62 (* (- 1) x1)) (?v_4 (* (- 1) x16)) (?v_40 (* (- 1) x9)) (?v_51 (* (- 1) x5)) (?v_25 (* (- 1) x17)) (?v_10 (* (- 1) x19)) (?v_21 (* (- 1) x2)) (?v_11 (* (- 1) x20)) (?v_89 (* (- 1) x29)) (?v_56 (* (- 1) x23)) (?v_39 (* (- 1) x8)) (?v_55 (* (- 1) x15)) (?v_95 (* (- 2) x26)) (?v_63 (* (- 1) x18)) (?v_33 (* (- 1) x27)) (?v_37 (* (- 1) x0)) (?v_38 (* (- 1) x10)) (?v_94 (* (- 2) x17)) (?v_78 (* (- 2) x9)) (?v_50 (* (- 1) x4)) (?v_54 (* (- 1) x12)) (?v_81 (* (- 1) x21)) (?v_68 (* (- 1) x7)) (?v_101 (* (- 1) x13)) (?v_67 (* (- 1) x28)) (?v_72 (* (- 1) x3)) (?v_87 (* (- 1) x6)) (?v_77 (* (- 2) x20))) (and (<= (+ ?v_88 (+ ?v_86 (+ ?v_5 (+ ?v_6 (+ ?v_9 (+ ?v_17 (+ ?v_19 (+ ?v_0 (+ ?v_3 (+ ?v_20 (+ ?v_28 (+ ?v_7 (+ ?v_1 ?v_16))))))))))))) 0) (<= (+ ?v_44 (+ (* (- 2) x11) (+ ?v_62 (+ ?v_2 (+ ?v_65 (+ ?v_0 (+ ?v_4 (+ ?v_40 (+ ?v_8 (+ ?v_35 (+ ?v_51 (+ ?v_49 (+ ?v_32 (+ ?v_1 (+ ?v_14 ?v_23))))))))))))))) 0) (<= (+ ?v_2 (+ (* (- 3) x13) (+ ?v_18 (+ ?v_0 (+ ?v_3 (+ ?v_4 (+ ?v_25 (+ ?v_30 (+ ?v_10 (+ ?v_21 (+ ?v_11 (+ ?v_5 (+ ?v_6 (+ ?v_7 (+ ?v_22 (+ ?v_8 (+ ?v_12 (+ ?v_52 (+ ?v_13 (+ ?v_15 (+ ?v_71 ?v_24))))))))))))))))))))) 1) (<= (+ ?v_9 (+ ?v_29 (+ ?v_3 (+ ?v_69 (+ ?v_41 (+ ?v_10 (+ ?v_11 (+ ?v_89 (+ ?v_47 (+ ?v_12 (+ ?v_96 (+ ?v_57 (+ ?v_13 (+ ?v_14 (+ ?v_91 (+ ?v_15 (+ ?v_36 (+ (* 2 x5) ?v_16)))))))))))))))))) 0) (<= (+ (* (- 2) x0) (+ ?v_17 (+ ?v_18 (+ ?v_19 (+ ?v_3 (+ ?v_20 (+ ?v_21 (+ ?v_56 (+ ?v_39 (+ ?v_31 (+ ?v_1 (+ ?v_22 (+ ?v_8 (+ ?v_43 (+ ?v_26 (+ ?v_23 (+ ?v_24 ?v_27))))))))))))))))) 1) (<= (+ ?v_55 (+ ?v_95 (+ ?v_4 (+ ?v_25 (+ ?v_63 (+ ?v_9 (+ ?v_19 (+ ?v_34 (+ ?v_26 (+ ?v_27 (+ ?v_93 (+ ?v_28 (+ ?v_92 (+ ?v_70 (+ (* 2 x24) (+ ?v_33 (+ ?v_23 ?v_24))))))))))))))))) 1) (<= (+ ?v_37 (+ ?v_38 (+ ?v_29 (+ ?v_19 (+ ?v_64 (+ ?v_10 (+ ?v_45 (+ ?v_3 (+ ?v_30 (+ ?v_42 (+ ?v_31 (+ ?v_46 (+ ?v_32 (+ ?v_22 (+ ?v_33 (+ ?v_8 (+ ?v_53 (+ ?v_34 (+ ?v_35 (+ ?v_61 ?v_36)))))))))))))))))))) 0) (<= (+ ?v_37 (+ ?v_38 (+ ?v_94 (+ ?v_39 (+ ?v_40 (+ ?v_41 (+ ?v_42 (+ ?v_32 (+ ?v_1 (+ ?v_28 (+ ?v_58 (+ ?v_33 (+ ?v_43 (+ ?v_34 (+ ?v_26 (+ (* (- 2) x6) ?v_16)))))))))))))))) 0) (<= (+ ?v_78 (+ ?v_50 (+ ?v_44 (+ ?v_84 (+ ?v_18 (+ ?v_83 (+ ?v_45 (+ ?v_48 (+ ?v_28 (+ ?v_7 (+ ?v_46 (+ ?v_32 (+ ?v_1 (+ ?v_47 (+ ?v_98 (+ ?v_34 (+ ?v_26 ?v_24))))))))))))))))) 0) (<= (+ ?v_37 (+ ?v_38 (+ ?v_54 (+ (* 2 x15) (+ ?v_4 (+ ?v_11 (+ ?v_18 (+ ?v_48 (+ ?v_49 (+ ?v_81 (+ ?v_50 (+ ?v_51 (+ ?v_68 (+ ?v_45 (+ ?v_60 (+ ?v_52 (+ ?v_1 (+ ?v_22 (+ ?v_47 (+ ?v_53 (+ ?v_23 ?v_27))))))))))))))))))))) 1) (<= (+ ?v_66 (+ (* (- 2) x18) (+ ?v_54 (+ ?v_101 (+ ?v_55 (+ ?v_25 (+ ?v_56 (+ ?v_6 (+ ?v_18 (+ ?v_45 (+ ?v_59 (+ ?v_42 (+ ?v_28 (+ ?v_7 (+ ?v_57 (+ ?v_23 (+ ?v_16 ?v_100))))))))))))))))) 0) (<= (+ ?v_37 (+ ?v_50 (+ ?v_9 (+ ?v_29 (+ ?v_19 (+ (* 2 x11) (+ ?v_10 (+ ?v_45 (+ ?v_74 (+ ?v_82 (+ ?v_31 (+ ?v_46 (+ ?v_1 (+ ?v_8 (+ ?v_58 (+ ?v_43 (+ ?v_85 (+ ?v_36 (* 2 x6))))))))))))))))))) (- 1)) (<= (+ ?v_44 (+ ?v_25 (+ (* (- 3) x20) (+ ?v_51 (+ ?v_97 (+ ?v_45 (+ ?v_48 (+ ?v_80 (+ ?v_59 (+ ?v_42 (+ ?v_60 (+ ?v_27 (+ ?v_14 (+ (* 2 x21) ?v_61)))))))))))))) (- 1)) (<= (+ ?v_62 (+ ?v_63 (+ ?v_67 (+ ?v_72 (+ ?v_64 (+ ?v_65 (+ ?v_73 (+ ?v_45 (+ ?v_41 (+ ?v_31 (+ ?v_7 (+ ?v_32 (+ ?v_35 (+ ?v_12 (+ ?v_16 (+ (* 3 x19) ?v_87)))))))))))))))) (- 1)) (<= (+ ?v_66 (+ ?v_54 (+ ?v_25 (+ ?v_67 (+ ?v_68 (+ ?v_18 (+ ?v_79 (+ ?v_69 (+ ?v_10 (+ ?v_42 (+ ?v_31 (+ ?v_70 (+ ?v_1 (+ ?v_22 (+ ?v_75 (+ ?v_12 ?v_76)))))))))))))))) 1) (<= (+ ?v_44 (+ ?v_77 (+ ?v_67 (+ ?v_72 (+ ?v_68 (+ ?v_39 (+ ?v_18 (+ ?v_73 (+ ?v_74 (+ ?v_30 (+ ?v_42 (+ ?v_7 (+ ?v_46 (+ ?v_1 (+ ?v_58 (+ ?v_75 (+ ?v_53 ?v_76))))))))))))))))) 0) (<= (+ ?v_44 (+ ?v_77 (+ ?v_78 (+ ?v_54 (+ ?v_6 (+ ?v_50 (+ ?v_18 (+ ?v_79 (+ ?v_74 (+ ?v_80 (+ ?v_81 (+ ?v_42 (+ ?v_32 (+ ?v_1 (+ ?v_53 (+ ?v_34 (+ ?v_12 (+ ?v_71 (+ ?v_61 ?v_16))))))))))))))))))) (- 1)) (<= (+ ?v_37 (+ ?v_3 (+ ?v_17 (+ ?v_73 (+ ?v_77 (+ ?v_4 (+ ?v_50 (+ ?v_82 (+ ?v_47 (+ ?v_34 (+ ?v_30 (+ ?v_14 (+ ?v_83 (+ ?v_68 (+ ?v_39 (+ ?v_20 (+ ?v_42 ?v_33))))))))))))))))) (- 1)) (<= (+ ?v_5 (+ ?v_67 (+ ?v_44 (+ ?v_84 (+ ?v_18 (+ ?v_29 (+ ?v_3 (+ ?v_41 (+ ?v_48 (+ ?v_31 (+ ?v_32 (+ ?v_47 (+ ?v_14 (+ ?v_75 (+ ?v_34 (+ ?v_35 (+ ?v_27 (+ ?v_61 ?v_85)))))))))))))))))) 0) (<= (+ (* (- 2) x16) (+ ?v_86 (+ ?v_25 (+ ?v_9 (+ ?v_19 (+ ?v_48 (+ ?v_65 (+ ?v_10 (+ ?v_21 (+ ?v_56 (+ ?v_51 (+ ?v_68 (+ ?v_45 (+ ?v_28 (+ ?v_7 (+ ?v_22 (+ ?v_13 (+ ?v_75 ?v_87)))))))))))))))))) 0) (<= (+ ?v_55 (+ ?v_44 (+ ?v_48 (+ ?v_79 (+ ?v_65 (+ (* (- 2) x2) (+ ?v_88 (+ ?v_0 (+ ?v_11 (+ ?v_5 (+ ?v_89 (+ ?v_13 (+ (* 2 x26) (+ ?v_68 (+ ?v_75 (+ ?v_90 (+ ?v_26 (+ ?v_87 ?v_27)))))))))))))))))) (- 1)) (<= (+ ?v_66 (+ ?v_18 (+ ?v_19 (+ ?v_82 (+ ?v_21 (+ ?v_6 (+ ?v_51 (+ ?v_7 (+ ?v_46 (+ ?v_53 (+ ?v_34 (+ ?v_70 (+ ?v_13 (+ ?v_14 (+ ?v_24 (+ (* 2 x14) (+ (* 2 x4) ?v_87))))))))))))))))) 0) (<= (+ ?v_37 (+ ?v_55 (+ ?v_17 (+ ?v_19 (+ ?v_4 (+ ?v_48 (+ ?v_56 (+ ?v_50 (+ ?v_31 (+ ?v_22 (+ ?v_47 (+ ?v_53 (+ ?v_91 (+ ?v_15 (+ ?v_26 (+ ?v_24 (+ ?v_12 (+ ?v_79 (+ ?v_64 (+ ?v_65 ?v_92)))))))))))))))))))) (- 1)) (<= (+ (* (- 2) x4) (+ ?v_66 (+ ?v_18 (+ ?v_19 (+ ?v_3 (+ ?v_82 (+ ?v_65 (+ ?v_30 (+ ?v_20 (+ ?v_21 (+ ?v_89 (+ ?v_31 (+ ?v_7 (+ ?v_46 (+ ?v_47 (+ ?v_12 (+ ?v_93 (+ ?v_70 (+ ?v_75 (+ ?v_15 ?v_36)))))))))))))))))))) 0) (<= (+ ?v_37 (+ ?v_2 (+ ?v_94 (+ ?v_95 (+ (* (- 2) x8) (+ ?v_11 (+ ?v_56 (+ ?v_9 (+ ?v_18 (+ ?v_19 (+ ?v_41 (+ ?v_22 (+ ?v_53 (+ ?v_26 (+ ?v_24 (+ ?v_93 (+ ?v_30 (+ ?v_60 (* (- 2) x27))))))))))))))))))) 0) (<= (+ ?v_66 (+ (* (- 3) x11) (+ ?v_89 (+ ?v_82 (+ (* (- 2) x24) (+ ?v_7 (+ ?v_22 (+ ?v_47 (+ ?v_26 (+ (* 1 x19) (+ ?v_96 (+ ?v_28 (+ ?v_70 (+ (* 2 x3) (+ ?v_23 (+ ?v_16 ?v_36)))))))))))))))) 0) (<= (+ ?v_54 (+ ?v_6 (+ ?v_89 (+ ?v_51 (+ ?v_97 (+ ?v_81 (+ ?v_45 (+ ?v_3 (+ ?v_30 (+ (* 2 x17) (+ ?v_20 (+ ?v_22 (+ ?v_35 (+ ?v_12 (+ ?v_70 (+ ?v_99 (+ ?v_98 (+ ?v_15 ?v_23)))))))))))))))))) 0) (<= (+ ?v_38 (+ ?v_44 (+ ?v_94 (+ ?v_54 (+ ?v_5 (+ ?v_18 (+ ?v_81 (+ ?v_45 (+ ?v_3 (+ ?v_41 (+ ?v_30 (+ ?v_20 (+ ?v_8 (+ ?v_35 (+ ?v_26 (+ ?v_99 (+ ?v_15 (+ ?v_23 ?v_100)))))))))))))))))) 1) (<= (+ ?v_66 (+ ?v_2 (+ ?v_54 (+ ?v_19 (+ ?v_79 (+ ?v_0 (+ ?v_3 (+ ?v_4 (+ ?v_63 (+ ?v_11 (+ ?v_60 (+ ?v_6 (+ ?v_67 (+ ?v_89 (+ ?v_32 (+ ?v_34 (+ ?v_26 (+ ?v_59 (+ (* 3 x24) (+ ?v_99 ?v_23)))))))))))))))))))) 0) (<= (+ ?v_38 (+ ?v_44 (+ ?v_86 (+ ?v_101 (+ ?v_55 (+ ?v_5 (+ ?v_51 (+ ?v_39 (+ ?v_9 (+ ?v_81 (+ ?v_45 (+ ?v_41 (+ ?v_82 (+ ?v_20 (+ ?v_47 (+ ?v_53 (+ ?v_35 (+ ?v_28 (+ ?v_24 (+ ?v_99 ?v_61)))))))))))))))))))) 0)))))
(check-sat)
(exit)
